NAME : N60ft302.dat.10895.tour
COMMENT : Length = 10895
COMMENT : Found by LKH [Keld Helsgaun] Tue May  2 05:19:43 2017
TYPE : TOUR
DIMENSION : 60
TOUR_SECTION
1
8
2
35
25
16
24
60
27
5
13
49
19
56
17
31
45
59
21
23
6
26
20
32
54
15
3
53
11
52
44
36
43
9
39
4
46
29
30
42
10
14
58
7
22
57
33
28
40
48
38
41
37
51
12
18
47
50
55
34
-1
EOF
